unsat
(error "line 970 column 17: model is not available")
(error "line 971 column 17: model is not available")
(error "line 972 column 18: model is not available")
(error "line 973 column 18: model is not available")
(error "line 974 column 18: model is not available")
(error "line 975 column 18: model is not available")
(error "line 976 column 18: model is not available")
(error "line 977 column 18: model is not available")
(error "line 978 column 18: model is not available")
(error "line 979 column 18: model is not available")
(error "line 980 column 18: model is not available")
(error "line 981 column 18: model is not available")
(error "line 982 column 17: model is not available")
(error "line 983 column 18: model is not available")
(error "line 984 column 18: model is not available")
(error "line 985 column 18: model is not available")
(error "line 986 column 18: model is not available")
(error "line 987 column 18: model is not available")
(error "line 988 column 18: model is not available")
(error "line 989 column 18: model is not available")
(error "line 990 column 18: model is not available")
(error "line 991 column 18: model is not available")
(error "line 992 column 18: model is not available")
(error "line 993 column 17: model is not available")
(error "line 994 column 18: model is not available")
(error "line 995 column 18: model is not available")
(error "line 996 column 18: model is not available")
(error "line 997 column 18: model is not available")
(error "line 998 column 18: model is not available")
(error "line 999 column 18: model is not available")
(error "line 1000 column 18: model is not available")
(error "line 1001 column 18: model is not available")
(error "line 1002 column 18: model is not available")
(error "line 1003 column 18: model is not available")
(error "line 1004 column 17: model is not available")
(error "line 1005 column 18: model is not available")
(error "line 1006 column 18: model is not available")
(error "line 1007 column 18: model is not available")
(error "line 1008 column 18: model is not available")
(error "line 1009 column 18: model is not available")
(error "line 1010 column 18: model is not available")
(error "line 1011 column 18: model is not available")
(error "line 1012 column 18: model is not available")
(error "line 1013 column 18: model is not available")
(error "line 1014 column 18: model is not available")
(error "line 1015 column 17: model is not available")
(error "line 1016 column 18: model is not available")
(error "line 1017 column 18: model is not available")
(error "line 1018 column 17: model is not available")
(error "line 1019 column 17: model is not available")
(error "line 1020 column 17: model is not available")
(error "line 1021 column 17: model is not available")
(error "line 1022 column 38: model is not available")
(error "line 1023 column 45: model is not available")
(error "line 1024 column 38: model is not available")
(error "line 1025 column 45: model is not available")
(error "line 1026 column 46: model is not available")
(error "line 1027 column 53: model is not available")
(error "line 1028 column 40: model is not available")
(error "line 1029 column 47: model is not available")
(error "line 1030 column 38: model is not available")
(error "line 1031 column 45: model is not available")
(error "line 1032 column 38: model is not available")
(error "line 1033 column 45: model is not available")
(error "line 1034 column 41: model is not available")
(error "line 1035 column 48: model is not available")
(error "line 1036 column 41: model is not available")
(error "line 1037 column 48: model is not available")
(error "line 1038 column 37: model is not available")
(error "line 1039 column 44: model is not available")
(error "line 1040 column 42: model is not available")
(error "line 1041 column 42: model is not available")
(error "line 1042 column 38: model is not available")
(error "line 1043 column 38: model is not available")
(error "line 1044 column 38: model is not available")
(error "line 1045 column 41: model is not available")
(error "line 1046 column 48: model is not available")
(error "line 1047 column 45: model is not available")
(error "line 1048 column 45: model is not available")
(error "line 1049 column 45: model is not available")
(error "line 1050 column 45: model is not available")
(error "line 1051 column 40: model is not available")
(error "line 1052 column 42: model is not available")
(error "line 1053 column 49: model is not available")
(error "line 1054 column 42: model is not available")
(error "line 1055 column 49: model is not available")
(error "line 1056 column 42: model is not available")
(error "line 1057 column 49: model is not available")
(error "line 1058 column 42: model is not available")
(error "line 1059 column 42: model is not available")
(error "line 1060 column 49: model is not available")
(error "line 1061 column 42: model is not available")
(error "line 1062 column 49: model is not available")
(error "line 1063 column 42: model is not available")
(error "line 1064 column 49: model is not available")
(error "line 1065 column 47: model is not available")
(error "line 1066 column 43: model is not available")
(error "line 1067 column 43: model is not available")
(error "line 1068 column 43: model is not available")
(error "line 1069 column 43: model is not available")
(error "line 1070 column 18: model is not available")
(error "line 1071 column 25: model is not available")
(error "line 1072 column 18: model is not available")
(error "line 1073 column 25: model is not available")
(error "line 1074 column 18: model is not available")
(error "line 1075 column 25: model is not available")
(error "line 1076 column 18: model is not available")
(error "line 1077 column 25: model is not available")
(error "line 1078 column 18: model is not available")
(error "line 1079 column 25: model is not available")
(error "line 1080 column 18: model is not available")
(error "line 1081 column 25: model is not available")
(error "line 1082 column 38: model is not available")
(error "line 1083 column 38: model is not available")
(error "line 1084 column 38: model is not available")
(error "line 1085 column 38: model is not available")
(error "line 1086 column 19: model is not available")
(error "line 1087 column 21: model is not available")
(error "line 1088 column 28: model is not available")
(error "line 1089 column 22: model is not available")
(error "line 1090 column 29: model is not available")
(error "line 1091 column 22: model is not available")
(error "line 1092 column 29: model is not available")
(error "line 1093 column 21: model is not available")
(error "line 1094 column 28: model is not available")
(error "line 1095 column 21: model is not available")
(error "line 1096 column 21: model is not available")
(error "line 1097 column 28: model is not available")
(error "line 1098 column 21: model is not available")
(error "line 1099 column 28: model is not available")
(error "line 1100 column 21: model is not available")
(error "line 1101 column 21: model is not available")
(error "line 1102 column 21: model is not available")
(error "line 1103 column 28: model is not available")
(error "line 1104 column 21: model is not available")
(error "line 1105 column 28: model is not available")
(error "line 1106 column 36: model is not available")
(error "line 1107 column 29: model is not available")
(error "line 1108 column 31: model is not available")
(error "line 1109 column 38: model is not available")
(error "line 1110 column 31: model is not available")
(error "line 1111 column 38: model is not available")
(error "line 1112 column 52: model is not available")
(error "line 1113 column 52: model is not available")
(error "line 1114 column 52: model is not available")
(error "line 1115 column 52: model is not available")
(error "line 1116 column 52: model is not available")
(error "line 1117 column 51: model is not available")
(error "line 1118 column 51: model is not available")
(error "line 1119 column 51: model is not available")
(error "line 1120 column 52: model is not available")
(error "line 1121 column 53: model is not available")
(error "line 1122 column 52: model is not available")
(error "line 1123 column 53: model is not available")
(error "line 1124 column 52: model is not available")
(error "line 1125 column 51: model is not available")
(error "line 1126 column 51: model is not available")
(error "line 1127 column 51: model is not available")
(error "line 1128 column 51: model is not available")
(error "line 1129 column 51: model is not available")
(error "line 1130 column 51: model is not available")
(error "line 1131 column 51: model is not available")
(error "line 1132 column 51: model is not available")
(error "line 1133 column 51: model is not available")
(error "line 1134 column 51: model is not available")
(error "line 1135 column 50: model is not available")
(error "line 1136 column 57: model is not available")
(error "line 1137 column 56: model is not available")
(error "line 1138 column 56: model is not available")
(error "line 1139 column 56: model is not available")
(error "line 1140 column 56: model is not available")
(error "line 1141 column 46: model is not available")
(error "line 1142 column 46: model is not available")
(error "line 1143 column 54: model is not available")
(error "line 1144 column 54: model is not available")
(error "line 1145 column 54: model is not available")
(error "line 1146 column 40: model is not available")
(error "line 1147 column 40: model is not available")
(error "line 1148 column 41: model is not available")
(error "line 1149 column 41: model is not available")
(error "line 1150 column 50: model is not available")
(error "line 1151 column 50: model is not available")
(error "line 1152 column 43: model is not available")
(error "line 1153 column 43: model is not available")
(error "line 1154 column 30: model is not available")
(error "line 1155 column 36: model is not available")
(error "line 1156 column 30: model is not available")
(error "line 1158 column 10: model is not available")
(:added-eqs                      28
 :arith-bound-propagations-cheap 3
 :arith-bound-propagations-lp    27
 :arith-lower                    33
 :arith-make-feasible            2
 :arith-max-columns              76
 :arith-max-rows                 52
 :arith-propagations             3
 :arith-upper                    14
 :binary-propagations            51
 :bv-bit2core                    160
 :bv-diseqs                      1
 :bv-dynamic-diseqs              1
 :bv->core-eq                    3
 :conflicts                      1
 :eliminated-applications        21
 :eliminated-vars                13
 :max-memory                     3.71
 :memory                         3.00
 :mk-bool-var                    547
 :mk-clause                      195
 :num-allocs                     633905
 :num-checks                     1
 :propagations                   91
 :rlimit-count                   28753
 :time                           0.01
 :total-time                     0.01)

real	0m0.018s
user	0m0.010s
sys	0m0.008s
State: RE Run_time: 0.020154237747192383